55887
46, 39, 36, 15, 31, 25, 27, 1, 33, 42, 11, 45, 52, 2, 14, 12, 18, 4, 30, 47, 54, 34, 9, 53, 23, 49, 26, 55, 28, 6, 3, 43, 40, 51, 13, 5, 37, 7, 20, 50, 24, 35, 38, 44, 8, 32, 41, 19, 48, 17, 21, 29, 10, 22, 16
